minizinc/sudoku_problems2/sudoku_p76.dzn
%
% sudoku_p76.dzn
% See http://www.hakank.org/minizinc/sudoku_gcc.mzn
% 
% This problem is problem 76 from
% Gecode's sudoku.cpp
% http://www.gecode.org/gecode-doc-latest/sudoku_8cpp-source.html
% 
x = array2d(1..n, 1..n, [   
% http://janko.at/Raetsel/Sudoku/588.a.htm
% 76
 15,  _,  _,  _,  _,  _,  8,  _,  4,  3,  _,  _, 11, 16, 13,  6,
  6, 14,  _,  _, 16,  2,  9,  _,  _,  _,  _, 12,  3,  _,  7,  _,
  2,  _,  1,  _,  _, 13,  7,  _,  5,  _, 14,  _,  _, 12,  _,  _,
  8,  9,  _,  4,  _,  _,  _, 12,  7,  _,  6,  1,  2,  _,  _,  _,
  _,  1,  _, 15,  _,  _, 13, 10, 14, 11,  5,  _,  _,  _,  8,  _,
  _,  _,  6, 10, 15,  3,  4,  _,  _,  _, 13,  _,  _, 14,  1,  _,
 14,  _,  _,  _, 11,  _,  _,  5,  _,  _,  8, 16,  _,  4,  9,  3,
  7,  _,  8,  9,  2,  _,  _,  _,  _,  4,  _,  3, 13,  _,  _,  _,
  _,  _,  _,  1, 14,  _, 10,  _,  _,  _,  _, 15,  6,  3,  _, 12,
 13,  6, 14,  _,  8,  9,  _,  _, 16,  _,  _,  5,  _,  _,  _,  1,
  _, 16,  3,  _,  _, 15,  _,  _,  _,  9,  1, 14,  7,  8,  _,  _,
  _, 15,  _,  _,  _,  1, 16, 11,  3,  6,  _,  _, 14,  _, 10,  _,
  _,  _,  _,  8,  7, 16,  _,  6, 12,  _,  _,  _,  4,  _, 15, 10,
  _,  _,  7,  _,  _,  8,  _,  1,  _, 15, 11,  _,  _,  6,  _,  2,
  _, 13,  _, 16, 10,  _,  _,  _,  _,  1,  3,  4,  _,  _, 12, 14,
 12,  2, 10,  6,  _,  _, 15,  3,  _,  5,  _,  _,  _,  _,  _, 13
]);

n = 16;


